100 100 100
50
74 40 89
66 25 92
92 86 75
4 12 14
35 42 35
84 21 83
82 71 77
87 100 22
94 77 34
5 82 67
83 28 97
95 39 79
47 38 43
81 28 74
74 15 76
78 10 99
79 33 98
94 37 87
68 21 88
93 3 94
4 70 69
91 20 83
83 86 15
92 44 80
95 26 67
97 38 73
76 42 71
74 74 48
17 41 32
86 12 74
89 29 90
87 51 88
81 12 71
71 84 4
84 4 72
82 6 67
70 21 96
100 19 84
94 15 66
68 1 90
87 40 69
46 8 18
71 10 72
96 30 80
79 7 97
86 1 75
75 83 27
56 97 53
37 21 14
87 52 53
